local_stuff/loop_inv_stuff/loop_inv_oai/repo/z3/20.out
STDOUT:
(error "line 8 column 138: Sort mismatch at argument #1 for function (declare-fun ite (Bool Bool Bool) Bool) supplied sort is Int")
sat
(
  (define-fun inv ((x!0 Int) (x!1 Int) (x!2 Int) (x!3 Int)) Bool
    (and (= x!0 0) (= x!1 0) (= x!3 0)))
)


STDERR:
